24° run output:
{
    "Function": "kroA300.tsp",
    "Problem dimension": [
        214,
        74,
        153,
        76,
        29,
        188,
        234,
        99,
        246,
        289,
        178,
        256,
        190,
        52,
        131,
        261,
        111,
        182,
        66,
        12,
        224,
        145,
        53,
        239,
        124,
        168,
        202,
        17,
        193,
        0,
        196,
        100,
        160,
        203,
        137,
        286,
        183,
        20,
        5,
        120,
        171,
        23,
        34,
        219,
        4,
        152,
        130,
        229,
        211,
        194,
        186,
        232,
        272,
        35,
        275,
        230,
        45,
        223,
        254,
        121,
        200,
        47,
        172,
        158,
        41,
        89,
        54,
        103,
        259,
        258,
        144,
        94,
        87,
        150,
        141,
        118,
        205,
        83,
        176,
        140,
        33,
        134,
        46,
        30,
        166,
        179,
        220,
        115,
        60,
        36,
        77,
        81,
        298,
        9,
        204,
        269,
        217,
        247,
        157,
        180,
        209,
        133,
        267,
        248,
        96,
        139,
        199,
        208,
        227,
        61,
        195,
        288,
        42,
        104,
        136,
        233,
        151,
        277,
        129,
        268,
        11,
        207,
        237,
        163,
        85,
        255,
        102,
        7,
        218,
        67,
        235,
        244,
        284,
        110,
        65,
        197,
        39,
        8,
        26,
        68,
        192,
        294,
        281,
        56,
        59,
        215,
        75,
        251,
        266,
        14,
        270,
        63,
        167,
        201,
        184,
        72,
        125,
        95,
        174,
        263,
        189,
        88,
        264,
        236,
        260,
        98,
        148,
        58,
        40,
        114,
        291,
        64,
        212,
        191,
        156,
        274,
        122,
        206,
        123,
        135,
        48,
        222,
        132,
        49,
        142,
        210,
        19,
        78,
        249,
        285,
        73,
        273,
        116,
        37,
        24,
        185,
        162,
        92,
        262,
        146,
        279,
        226,
        93,
        181,
        143,
        265,
        299,
        101,
        164,
        187,
        252,
        241,
        213,
        149,
        257,
        175,
        228,
        127,
        253,
        38,
        113,
        271,
        22,
        240,
        293,
        225,
        105,
        296,
        109,
        43,
        32,
        15,
        243,
        169,
        245,
        44,
        280,
        165,
        287,
        18,
        91,
        276,
        154,
        231,
        198,
        31,
        117,
        13,
        283,
        155,
        10,
        6,
        159,
        161,
        1,
        69,
        90,
        238,
        278,
        27,
        147,
        170,
        70,
        82,
        28,
        295,
        51,
        86,
        292,
        107,
        221,
        71,
        297,
        126,
        108,
        106,
        3,
        282,
        25,
        242,
        2,
        177,
        55,
        79,
        250,
        216,
        138,
        290,
        112,
        21,
        97,
        57,
        128,
        84,
        173,
        50,
        62,
        80,
        119,
        16
    ],
    "Global Optimum": 0,
    "Algorithm": "Genetic algorithm",
    "Parameters": {
        "population": 30,
        "offspring": 30,
        "mutation probability": 0.0033333333333333335,
        "crossover probability": 0.9
    },
    "Fitness": 282141,
    "Solution": [
        214,
        74,
        153,
        76,
        29,
        188,
        234,
        99,
        246,
        289,
        178,
        256,
        190,
        52,
        131,
        261,
        111,
        182,
        66,
        12,
        224,
        145,
        53,
        239,
        124,
        168,
        202,
        17,
        193,
        0,
        196,
        100,
        160,
        203,
        137,
        286,
        183,
        20,
        5,
        120,
        171,
        23,
        34,
        219,
        4,
        152,
        130,
        229,
        211,
        194,
        186,
        232,
        272,
        35,
        275,
        230,
        45,
        223,
        254,
        121,
        200,
        47,
        172,
        158,
        41,
        89,
        54,
        103,
        259,
        258,
        144,
        94,
        87,
        150,
        141,
        118,
        205,
        83,
        176,
        140,
        33,
        134,
        46,
        30,
        166,
        179,
        220,
        115,
        60,
        36,
        77,
        81,
        298,
        9,
        204,
        269,
        217,
        247,
        157,
        180,
        209,
        133,
        267,
        248,
        96,
        139,
        199,
        208,
        227,
        61,
        195,
        288,
        42,
        104,
        136,
        233,
        151,
        277,
        129,
        268,
        11,
        207,
        237,
        163,
        85,
        255,
        102,
        7,
        218,
        67,
        235,
        244,
        284,
        110,
        65,
        197,
        39,
        8,
        26,
        68,
        192,
        294,
        281,
        56,
        59,
        215,
        75,
        251,
        266,
        14,
        270,
        63,
        167,
        201,
        184,
        72,
        125,
        95,
        174,
        263,
        189,
        88,
        264,
        236,
        260,
        98,
        148,
        58,
        40,
        114,
        291,
        64,
        212,
        191,
        156,
        274,
        122,
        206,
        123,
        135,
        48,
        222,
        132,
        49,
        142,
        210,
        19,
        78,
        249,
        285,
        73,
        273,
        116,
        37,
        24,
        185,
        162,
        92,
        262,
        146,
        279,
        226,
        93,
        181,
        143,
        265,
        299,
        101,
        164,
        187,
        252,
        241,
        213,
        149,
        257,
        175,
        228,
        127,
        253,
        38,
        113,
        271,
        22,
        240,
        293,
        225,
        105,
        296,
        109,
        43,
        32,
        15,
        243,
        169,
        245,
        44,
        280,
        165,
        287,
        18,
        91,
        276,
        154,
        231,
        198,
        31,
        117,
        13,
        283,
        155,
        10,
        6,
        159,
        161,
        1,
        69,
        90,
        238,
        278,
        27,
        147,
        170,
        70,
        82,
        28,
        295,
        51,
        86,
        292,
        107,
        221,
        71,
        297,
        126,
        108,
        106,
        3,
        282,
        25,
        242,
        2,
        177,
        55,
        79,
        250,
        216,
        138,
        290,
        112,
        21,
        97,
        57,
        128,
        84,
        173,
        50,
        62,
        80,
        119,
        16
    ],
    "Nb of functions evaluations": 200010,
    "Computational time in seconds": 323.76509404182434,
    "Stopping criterion in evaluations": 200000
}